32      4       
10      10      10      10      
0       0       0       0       0       5       2       5       7       8       16      
7       1       1       1       0       2       3       11      
5       0       5       4       1       2       4       14      
7       3       3       0       5       2       6       15      
6       0       5       3       7       3       9       11      14      
10      0       5       6       1       2       9       31      
2       3       8       5       0       2       9       31      
1       1       3       0       6       2       10      14      
5       6       3       0       2       2       10      18      
9       7       0       8       4       3       12      19      30      
1       3       5       0       3       3       18      20      29      
4       7       6       2       0       1       13      
6       5       6       0       6       3       17      25      29      
2       1       4       0       7       3       18      21      29      
4       0       3       3       3       3       18      21      29      
10      0       3       4       8       2       17      19      
8       3       0       4       5       1       20      
9       0       3       5       1       1       19      
8       0       2       2       4       3       22      25      28      
7       4       4       8       0       3       21      27      28      
1       5       4       4       0       1       22      
6       0       4       1       1       1       23      
8       7       5       6       0       1       24      
4       5       5       0       6       1       26      
8       6       5       0       1       1       27      
4       0       2       2       5       1       32      
6       3       0       2       3       1       32      
8       4       0       4       5       1       32      
9       4       0       4       4       1       32      
7       4       3       6       0       1       32      
1       2       3       0       4       1       32      
0       0       0       0       0       0       
